p cnf 288 858
-1 10 0 
1 115 0 
-97 64 83 0 
-98 -99 115 0 
-98 99 117 0 
-99 -19 100 0 
-99 19 53 0 
-100 -27 0 
-100 27 101 0 
-101 -29 102 0 
-101 29 53 0 
-102 -32 103 0 
-102 32 104 0 
-103 44 0 
-104 -53 0 
-104 53 105 0 
-105 -66 0 
-105 66 106 0 
-106 -71 0 
-106 71 107 0 
-10 -11 12 0 
-10 11 14 0 
-107 -75 0 
-107 75 108 0 
-108 -79 109 0 
-108 79 110 0 
-109 -82 0 
-109 82 53 0 
-110 -86 0 
-110 86 111 0 
-111 -89 0 
-111 89 112 0 
-112 -92 0 
-112 92 113 0 
-113 -95 114 0 
-113 95 0 
-114 -97 0 
-114 97 53 0 
-115 -116 13 0 
-115 -13 116 0 
-11 -8 0 
-117 -118 115 0 
-117 118 161 0 
-118 -19 119 0 
-118 19 66 0 
-119 -27 0 
-119 27 120 0 
-120 -29 121 0 
-120 29 66 0 
-121 -32 0 
-121 32 122 0 
-122 -53 123 0 
-122 53 151 0 
-123 -58 0 
-123 58 124 0 
-124 -63 125 0 
-124 63 0 
-125 -126 145 0 
-125 126 0 
-126 127 0 
-126 142 0 
-127 128 0 
-127 139 0 
-128 129 0 
-128 136 0 
-129 130 0 
-129 133 0 
-130 -131 132 0 
-130 -132 131 0 
-133 -134 135 0 
-133 -135 134 0 
-136 -137 138 0 
-136 -138 137 0 
-12 13 0 
-139 -140 141 0 
-139 -141 140 0 
-142 -143 144 0 
-142 -144 143 0 
-145 -146 0 
-146 147 0 
-146 149 0 
-147 -148 0 
-149 150 0 
-151 -66 0 
-151 66 152 0 
-152 -71 0 
-152 71 153 0 
-153 -75 0 
-153 75 154 0 
-154 -79 155 0 
-154 79 156 0 
-155 -82 0 
-155 82 66 0 
-156 -86 0 
-156 86 157 0 
-157 -89 0 
-157 89 158 0 
-158 -92 0 
-158 92 159 0 
-159 -95 160 0 
-159 95 0 
-160 -97 0 
-160 97 66 0 
-161 -162 115 0 
-161 162 177 0 
-162 -19 163 0 
-162 19 71 0 
-163 -27 0 
-163 27 164 0 
-164 -29 165 0 
-164 29 71 0 
-165 -32 0 
-165 32 166 0 
-166 -53 0 
-166 53 167 0 
-14 -15 17 0 
-14 15 115 0 
-167 66 168 0 
-168 -71 0 
-168 71 169 0 
-169 -75 0 
-169 75 170 0 
-170 -79 171 0 
-170 79 172 0 
-171 -82 0 
-171 82 71 0 
-172 -86 0 
-172 86 173 0 
-173 -89 0 
-173 89 174 0 
-174 -92 0 
-174 92 175 0 
-175 -95 176 0 
-175 95 0 
-176 -97 0 
-176 97 71 0 
-15 16 0 
-15 2 0 
-177 -178 193 0 
-177 178 194 0 
-178 -19 179 0 
-178 19 75 0 
-179 -27 0 
-179 27 180 0 
-180 -29 181 0 
-180 29 75 0 
-181 -32 0 
-181 32 182 0 
-182 -53 0 
-182 53 183 0 
-183 -66 0 
-183 66 184 0 
-184 71 185 0 
-185 -75 0 
-185 75 186 0 
-186 -79 187 0 
-186 79 188 0 
-16 4 0 
-187 -82 0 
-187 82 75 0 
-188 -86 0 
-188 86 189 0 
-189 -89 0 
-189 89 190 0 
-190 -92 0 
-190 92 191 0 
-191 -95 192 0 
-191 95 0 
-192 -97 0 
-192 97 75 0 
-193 -13 0 
-194 -195 214 0 
-194 195 220 0 
-195 -19 196 0 
-195 19 79 0 
-196 -27 0 
-196 27 197 0 
-1 2 6 0 
-17 -18 12 0 
-17 18 98 0 
-197 -29 198 0 
-197 29 79 0 
-198 -32 0 
-198 32 199 0 
-199 -53 200 0 
-199 53 204 0 
-200 -58 0 
-200 58 201 0 
-201 -63 202 0 
-201 63 0 
-202 -126 203 0 
-203 146 0 
-204 -66 0 
-204 66 205 0 
-205 -71 0 
-205 71 206 0 
-206 75 207 0 
-18 -19 26 0 
-18 19 32 0 
-207 -79 208 0 
-207 79 209 0 
-208 -82 0 
-208 82 79 0 
-209 -86 0 
-209 86 210 0 
-210 -89 0 
-210 89 211 0 
-211 -92 0 
-211 92 212 0 
-212 -95 213 0 
-212 95 0 
-213 -97 0 
-213 97 79 0 
-214 -215 12 0 
-214 215 115 0 
-215 216 0 
-215 218 0 
-216 217 0 
-19 20 23 0 
-218 219 0 
-220 -221 115 0 
-220 221 237 0 
-221 -19 222 0 
-221 19 86 0 
-222 -27 0 
-222 27 223 0 
-223 -29 224 0 
-223 29 86 0 
-224 -32 0 
-224 32 225 0 
-225 -53 226 0 
-225 53 227 0 
-226 58 0 
-20 -21 0 
-227 -66 0 
-227 66 228 0 
-228 -71 0 
-228 71 229 0 
-229 -75 0 
-229 75 230 0 
-230 -79 231 0 
-230 79 232 0 
-231 -82 0 
-231 82 86 0 
-232 -86 0 
-232 86 233 0 
-233 -89 0 
-233 89 234 0 
-234 -92 0 
-234 92 235 0 
-235 -95 236 0 
-235 95 0 
-236 -97 0 
-236 97 86 0 
-21 -22 5 0 
-21 -5 22 0 
-237 -238 115 0 
-237 238 253 0 
-238 -19 239 0 
-238 19 89 0 
-239 -27 0 
-239 27 240 0 
-240 -29 241 0 
-240 29 89 0 
-241 -32 0 
-241 32 242 0 
-242 -53 0 
-242 53 243 0 
-243 -66 0 
-243 66 244 0 
-244 -71 0 
-244 71 245 0 
-245 -75 0 
-245 75 246 0 
-246 -79 247 0 
-246 79 248 0 
-247 -82 0 
-247 82 89 0 
-248 86 249 0 
-249 -89 0 
-249 89 250 0 
-250 -92 0 
-250 92 251 0 
-251 -95 252 0 
-251 95 0 
-252 -97 0 
-252 97 89 0 
-253 -254 193 0 
-253 254 269 0 
-254 -19 255 0 
-254 19 92 0 
-255 -27 0 
-255 27 256 0 
-256 -29 257 0 
-256 29 92 0 
-23 -24 0 
-257 -32 0 
-257 32 258 0 
-258 -53 0 
-258 53 259 0 
-259 -66 0 
-259 66 260 0 
-260 -71 0 
-260 71 261 0 
-261 -75 0 
-261 75 262 0 
-262 -79 263 0 
-262 79 264 0 
-263 -82 0 
-263 82 92 0 
-264 -86 0 
-264 86 265 0 
-265 89 266 0 
-266 -92 0 
-266 92 267 0 
-24 -9 25 0 
-24 -25 9 0 
-267 -95 268 0 
-267 95 0 
-268 -97 0 
-268 97 92 0 
-269 -270 285 0 
-269 270 12 0 
-270 -19 271 0 
-270 19 95 0 
-271 -27 0 
-271 27 272 0 
-272 -29 273 0 
-272 29 95 0 
-273 -32 0 
-273 32 274 0 
-274 -53 0 
-274 53 275 0 
-275 -66 0 
-275 66 276 0 
-276 -71 0 
-276 71 277 0 
-277 -75 0 
-277 75 278 0 
-278 -79 279 0 
-278 79 280 0 
-279 -82 0 
-279 82 95 0 
-280 -86 0 
-280 86 281 0 
-281 -89 0 
-281 89 282 0 
-282 92 283 0 
-283 -95 284 0 
-283 95 0 
-284 -97 0 
-284 97 95 0 
-285 -286 12 0 
-285 286 115 0 
-286 287 216 0 
-26 27 28 0 
-287 288 0 
-2 -3 0 
-27 -9 0 
-28 -29 31 0 
-28 29 32 0 
-29 20 0 
-29 30 0 
-30 5 0 
-31 -32 43 0 
-31 32 52 0 
-32 33 0 
-32 41 0 
-33 34 0 
-33 39 0 
-34 35 0 
-34 37 0 
-35 -36 0 
-3 -4 5 0 
-3 -5 4 0 
-37 -38 0 
-39 -40 0 
-41 -42 0 
-43 -44 0 
-44 45 50 0 
-45 46 0 
-45 48 0 
-46 -47 0 
-48 -49 0 
-50 -51 0 
-52 -53 57 0 
-52 53 65 0 
-53 41 0 
-53 54 0 
-54 39 0 
-54 55 0 
-55 37 0 
-55 56 0 
-56 36 0 
-57 -58 0 
-57 58 62 0 
-58 59 0 
-58 60 0 
-59 46 0 
-59 50 0 
-60 61 0 
-62 -63 0 
-63 45 0 
-63 64 0 
-64 51 0 
-65 -66 0 
-65 66 70 0 
-66 41 0 
-66 67 0 
-6 -7 0 
-67 39 0 
-67 68 0 
-68 35 0 
-68 69 0 
-69 38 0 
-70 -71 0 
-70 71 74 0 
-71 41 0 
-71 72 0 
-72 39 0 
-72 73 0 
-73 56 0 
-73 69 0 
-74 -75 0 
-74 75 78 0 
-75 41 0 
-75 76 0 
-76 34 0 
-76 77 0 
-7 -9 8 0 
-7 -8 9 0 
-77 40 0 
-78 -79 81 0 
-78 79 85 0 
-79 41 0 
-79 80 0 
-80 55 0 
-80 77 0 
-81 82 32 0 
-82 83 0 
-82 84 0 
-83 47 0 
-84 49 0 
-85 -86 0 
-85 86 88 0 
-86 41 0 
-86 87 0 
-87 68 0 
-87 77 0 
-88 -89 0 
-88 89 91 0 
-89 41 0 
-89 90 0 
-90 73 0 
-90 77 0 
-91 -92 0 
-91 92 94 0 
-92 33 0 
-92 93 0 
-93 42 0 
-94 -95 96 0 
-95 54 0 
-95 93 0 
-96 97 32 0 
97 -64 0 
97 -83 0 
98 -99 -115 0 
98 -115 -117 0 
98 99 -117 0 
99 -100 -53 0 
99 -19 -100 0 
99 19 -53 0 
100 27 -101 0 
101 -102 -53 0 
101 -29 -102 0 
101 29 -53 0 
102 -103 -104 0 
102 -32 -103 0 
102 32 -104 0 
103 -44 0 
104 53 -105 0 
105 66 -106 0 
106 71 -107 0 
10 -11 -12 0 
10 -12 -14 0 
10 11 -14 0 
107 75 -108 0 
108 -109 -110 0 
108 -79 -109 0 
108 79 -110 0 
109 82 -53 0 
110 86 -111 0 
111 89 -112 0 
112 92 -113 0 
113 -95 -114 0 
114 97 -53 0 
115 -13 -116 0 
115 13 116 0 
11 8 0 
117 -115 -161 0 
117 -118 -115 0 
117 118 -161 0 
118 -119 -66 0 
118 -19 -119 0 
118 19 -66 0 
119 27 -120 0 
120 -121 -66 0 
120 -29 -121 0 
120 29 -66 0 
121 32 -122 0 
122 -123 -151 0 
122 -53 -123 0 
122 53 -151 0 
123 58 -124 0 
124 -63 -125 0 
125 -126 -145 0 
126 -127 -142 0 
127 -128 -139 0 
128 -129 -136 0 
129 -130 -133 0 
130 -131 -132 0 
130 131 132 0 
133 -134 -135 0 
133 134 135 0 
136 -137 -138 0 
136 137 138 0 
12 -13 0 
139 -140 -141 0 
139 140 141 0 
142 -143 -144 0 
142 143 144 0 
145 146 0 
146 -147 -149 0 
147 148 0 
149 -150 0 
151 66 -152 0 
152 71 -153 0 
153 75 -154 0 
154 -155 -156 0 
154 -79 -155 0 
154 79 -156 0 
155 82 -66 0 
156 86 -157 0 
157 89 -158 0 
158 92 -159 0 
159 -95 -160 0 
160 97 -66 0 
161 -115 -177 0 
161 -162 -115 0 
161 162 -177 0 
162 -163 -71 0 
162 -19 -163 0 
162 19 -71 0 
163 27 -164 0 
164 -165 -71 0 
164 -29 -165 0 
164 29 -71 0 
165 32 -166 0 
166 53 -167 0 
14 -15 -17 0 
14 -17 -115 0 
14 15 -115 0 
167 -168 0 
167 -66 0 
167 66 -168 0 
168 71 -169 0 
169 75 -170 0 
170 -171 -172 0 
170 -79 -171 0 
170 79 -172 0 
171 82 -71 0 
172 86 -173 0 
173 89 -174 0 
174 92 -175 0 
175 -95 -176 0 
176 97 -71 0 
15 -2 -16 0 
177 -178 -193 0 
177 -193 -194 0 
177 178 -194 0 
178 -179 -75 0 
178 -19 -179 0 
178 19 -75 0 
179 27 -180 0 
180 -181 -75 0 
180 -29 -181 0 
180 29 -75 0 
181 32 -182 0 
182 53 -183 0 
183 66 -184 0 
184 -185 0 
184 -71 0 
184 71 -185 0 
185 75 -186 0 
186 -187 -188 0 
186 -79 -187 0 
186 79 -188 0 
16 -4 0 
187 82 -75 0 
188 86 -189 0 
189 89 -190 0 
190 92 -191 0 
191 -95 -192 0 
192 97 -75 0 
193 13 0 
194 -195 -214 0 
194 -214 -220 0 
194 195 -220 0 
195 -196 -79 0 
195 -19 -196 0 
195 19 -79 0 
196 27 -197 0 
1 -2 0 
1 -6 0 
17 -12 -98 0 
17 -18 -12 0 
17 18 -98 0 
197 -198 -79 0 
197 -29 -198 0 
197 29 -79 0 
198 32 -199 0 
199 -200 -204 0 
199 -53 -200 0 
199 53 -204 0 
200 58 -201 0 
201 -63 -202 0 
202 -126 -203 0 
202 -203 0 
202 126 0 
203 -146 0 
204 66 -205 0 
205 71 -206 0 
206 -207 0 
206 -75 0 
206 75 -207 0 
18 -19 -26 0 
18 -26 -32 0 
18 19 -32 0 
207 -208 -209 0 
207 -79 -208 0 
207 79 -209 0 
208 82 -79 0 
209 86 -210 0 
210 89 -211 0 
211 92 -212 0 
212 -95 -213 0 
213 97 -79 0 
214 -12 -115 0 
214 -215 -12 0 
214 215 -115 0 
215 -216 -218 0 
216 -217 0 
19 -20 0 
19 -23 0 
218 -219 0 
220 -115 -237 0 
220 -221 -115 0 
220 221 -237 0 
221 -19 -222 0 
221 -222 -86 0 
221 19 -86 0 
222 27 -223 0 
223 -224 -86 0 
223 -29 -224 0 
223 29 -86 0 
224 32 -225 0 
225 -226 -227 0 
225 -53 -226 0 
225 53 -227 0 
226 -58 0 
20 21 0 
227 66 -228 0 
228 71 -229 0 
229 75 -230 0 
230 -231 -232 0 
230 -79 -231 0 
230 79 -232 0 
231 82 -86 0 
232 86 -233 0 
233 89 -234 0 
234 92 -235 0 
235 -95 -236 0 
236 97 -86 0 
21 -5 -22 0 
21 5 22 0 
237 -115 -253 0 
237 -238 -115 0 
237 238 -253 0 
238 -19 -239 0 
238 -239 -89 0 
238 19 -89 0 
239 27 -240 0 
240 -241 -89 0 
240 -29 -241 0 
240 29 -89 0 
241 32 -242 0 
242 53 -243 0 
243 66 -244 0 
244 71 -245 0 
245 75 -246 0 
246 -247 -248 0 
246 -79 -247 0 
246 79 -248 0 
247 82 -89 0 
248 -249 0 
248 -86 0 
248 86 -249 0 
249 89 -250 0 
250 92 -251 0 
251 -95 -252 0 
252 97 -89 0 
253 -193 -269 0 
253 -254 -193 0 
253 254 -269 0 
254 -19 -255 0 
254 -255 -92 0 
254 19 -92 0 
255 27 -256 0 
256 -257 -92 0 
256 -29 -257 0 
256 29 -92 0 
23 24 0 
257 32 -258 0 
258 53 -259 0 
259 66 -260 0 
260 71 -261 0 
261 75 -262 0 
262 -263 -264 0 
262 -79 -263 0 
262 79 -264 0 
263 82 -92 0 
264 86 -265 0 
265 -266 0 
265 -89 0 
265 89 -266 0 
266 92 -267 0 
24 -9 -25 0 
24 9 25 0 
267 -95 -268 0 
268 97 -92 0 
269 -270 -285 0 
269 -285 -12 0 
269 270 -12 0 
270 -19 -271 0 
270 -271 -95 0 
270 19 -95 0 
271 27 -272 0 
272 -273 -95 0 
272 -29 -273 0 
272 29 -95 0 
273 32 -274 0 
274 53 -275 0 
275 66 -276 0 
276 71 -277 0 
277 75 -278 0 
278 -279 -280 0 
278 -79 -279 0 
278 79 -280 0 
279 82 -95 0 
280 86 -281 0 
281 89 -282 0 
282 -283 0 
282 -92 0 
282 92 -283 0 
283 -95 -284 0 
284 97 -95 0 
285 -12 -115 0 
285 -286 -12 0 
285 286 -115 0 
286 -216 0 
286 -287 0 
26 -28 0 
26 -27 0 
26 27 -28 0 
287 -288 0 
2 3 0 
27 9 0 
28 -29 -31 0 
28 -31 -32 0 
28 29 -32 0 
29 -20 -30 0 
30 -5 0 
31 -32 -43 0 
31 -43 -52 0 
31 32 -52 0 
32 -33 -41 0 
33 -34 -39 0 
34 -35 -37 0 
35 36 0 
3 -4 -5 0 
3 4 5 0 
37 38 0 
39 40 0 
41 42 0 
43 44 0 
44 -45 0 
44 -50 0 
45 -46 -48 0 
46 47 0 
48 49 0 
50 51 0 
52 -53 -57 0 
52 -57 -65 0 
52 53 -65 0 
53 -54 -41 0 
54 -55 -39 0 
55 -56 -37 0 
56 -36 0 
57 58 -62 0 
58 -59 -60 0 
59 -50 -46 0 
60 -61 0 
62 63 0 
63 -45 -64 0 
64 -51 0 
65 66 -70 0 
66 -67 -41 0 
6 7 0 
67 -68 -39 0 
68 -35 -69 0 
69 -38 0 
70 71 -74 0 
71 -72 -41 0 
72 -73 -39 0 
73 -56 -69 0 
74 75 -78 0 
75 -76 -41 0 
76 -34 -77 0 
7 -8 -9 0 
7 8 9 0 
77 -40 0 
78 -79 -81 0 
78 -81 -85 0 
78 79 -85 0 
79 -80 -41 0 
80 -55 -77 0 
81 -32 0 
81 -82 0 
81 82 -32 0 
82 -83 -84 0 
83 -47 0 
84 -49 0 
85 86 -88 0 
86 -87 -41 0 
87 -68 -77 0 
88 89 -91 0 
89 -90 -41 0 
90 -73 -77 0 
91 92 -94 0 
92 -33 -93 0 
93 -42 0 
94 -95 -96 0 
94 -96 0 
94 95 0 
95 -54 -93 0 
96 -97 0 
96 -32 0 
96 97 -32 0 
